data/solutions/recovery/degenerate/intermediate/binding/degenerate_intermediate_instance23/37.sol
Elapsed time: 0.05
Upper bound: 236839479.0
Planning weighted value: 8.83128845055e+11
C[0]=236839479.0
C[1]=236550902.0
C[2]=234556063.0
C[3]=234513176.0
C[4]=233245353.0
C[5]=229718690.0
C[6]=220415617.0
C[7]=218771761.0
C[8]=215446617.0
C[9]=212962377.0
C[10]=209385865.0
C[11]=0.0
y[0]=1
y[1]=5
y[2]=0
y[3]=9
y[4]=5
y[5]=1
y[6]=2
y[7]=8
y[8]=0
y[9]=5
y[10]=9
y[11]=5
y[12]=1
y[13]=10
y[14]=1
y[15]=9
y[16]=4
y[17]=7
y[18]=9
y[19]=3
y[20]=2
y[21]=2
y[22]=8
y[23]=9
y[24]=5
y[25]=3
y[26]=8
y[27]=7
y[28]=7
y[29]=3
y[30]=2
y[31]=10
y[32]=2
y[33]=7
y[34]=3
y[35]=8
y[36]=0
y[37]=8
y[38]=1
y[39]=3
y[40]=6
y[41]=5
y[42]=6
y[43]=4
y[44]=2
y[45]=10
y[46]=10
y[47]=7
y[48]=9
y[49]=3
y[50]=1
y[51]=10
y[52]=6
y[53]=4
y[54]=0
y[55]=7
y[56]=9
y[57]=3
y[58]=1
y[59]=5
y[60]=0
y[61]=10
y[62]=0
y[63]=4
y[64]=10
y[65]=6
y[66]=7
y[67]=1
y[68]=4
y[69]=2
y[70]=8
y[71]=6
y[72]=0
y[73]=6
y[74]=6
y[75]=1
y[76]=2
y[77]=4
